 &control
   prefix = 'bi_prefix',
   outdir = '/Users/shiangfang/Shiang DrobBox/Dropbox/Physics Research/Tim Kaxiras Group/DFT_KIT/examples/',
   pseudo_dir = '/home1/03051/sfang/Pseudo_Potential/QESPRESSO/',
   calculation = 'nscf' ,
 /
 &system
   nat = 2,
   ntyp = 1,
   nbnd = 20 ,
   ecutwfc = 25.0 ,
   ibrav = 0 ,
   lspinorb = .true. ,
   noncolin = .true. ,
 /
 &electrons
 /
 &ions
 /
 &cell
 /
CELL_PARAMETERS angstrom
 -2.26647965184 -1.3085526371 3.93232208036
 2.26647965184 -1.3085526371 3.93232208036
 0.0 2.61710527421 3.93232208036

ATOMIC_SPECIES
 Bi  208.9804  Bi.UPF

ATOMIC_POSITIONS angstrom
 Bi 0.0 0.0 0.0
 Bi 0.0 0.0 5.52263177611

K_POINTS crystal
 343
 0.0 0.0 0.0 0.00291545189504
 0.0 0.0 0.142857142857 0.00291545189504
 0.0 0.0 0.285714285714 0.00291545189504
 0.0 0.0 0.428571428571 0.00291545189504
 0.0 0.0 0.571428571429 0.00291545189504
 0.0 0.0 0.714285714286 0.00291545189504
 0.0 0.0 0.857142857143 0.00291545189504
 0.0 0.142857142857 0.0 0.00291545189504
 0.0 0.142857142857 0.142857142857 0.00291545189504
 0.0 0.142857142857 0.285714285714 0.00291545189504
 0.0 0.142857142857 0.428571428571 0.00291545189504
 0.0 0.142857142857 0.571428571429 0.00291545189504
 0.0 0.142857142857 0.714285714286 0.00291545189504
 0.0 0.142857142857 0.857142857143 0.00291545189504
 0.0 0.285714285714 0.0 0.00291545189504
 0.0 0.285714285714 0.142857142857 0.00291545189504
 0.0 0.285714285714 0.285714285714 0.00291545189504
 0.0 0.285714285714 0.428571428571 0.00291545189504
 0.0 0.285714285714 0.571428571429 0.00291545189504
 0.0 0.285714285714 0.714285714286 0.00291545189504
 0.0 0.285714285714 0.857142857143 0.00291545189504
 0.0 0.428571428571 0.0 0.00291545189504
 0.0 0.428571428571 0.142857142857 0.00291545189504
 0.0 0.428571428571 0.285714285714 0.00291545189504
 0.0 0.428571428571 0.428571428571 0.00291545189504
 0.0 0.428571428571 0.571428571429 0.00291545189504
 0.0 0.428571428571 0.714285714286 0.00291545189504
 0.0 0.428571428571 0.857142857143 0.00291545189504
 0.0 0.571428571429 0.0 0.00291545189504
 0.0 0.571428571429 0.142857142857 0.00291545189504
 0.0 0.571428571429 0.285714285714 0.00291545189504
 0.0 0.571428571429 0.428571428571 0.00291545189504
 0.0 0.571428571429 0.571428571429 0.00291545189504
 0.0 0.571428571429 0.714285714286 0.00291545189504
 0.0 0.571428571429 0.857142857143 0.00291545189504
 0.0 0.714285714286 0.0 0.00291545189504
 0.0 0.714285714286 0.142857142857 0.00291545189504
 0.0 0.714285714286 0.285714285714 0.00291545189504
 0.0 0.714285714286 0.428571428571 0.00291545189504
 0.0 0.714285714286 0.571428571429 0.00291545189504
 0.0 0.714285714286 0.714285714286 0.00291545189504
 0.0 0.714285714286 0.857142857143 0.00291545189504
 0.0 0.857142857143 0.0 0.00291545189504
 0.0 0.857142857143 0.142857142857 0.00291545189504
 0.0 0.857142857143 0.285714285714 0.00291545189504
 0.0 0.857142857143 0.428571428571 0.00291545189504
 0.0 0.857142857143 0.571428571429 0.00291545189504
 0.0 0.857142857143 0.714285714286 0.00291545189504
 0.0 0.857142857143 0.857142857143 0.00291545189504
 0.142857142857 0.0 0.0 0.00291545189504
 0.142857142857 0.0 0.142857142857 0.00291545189504
 0.142857142857 0.0 0.285714285714 0.00291545189504
 0.142857142857 0.0 0.428571428571 0.00291545189504
 0.142857142857 0.0 0.571428571429 0.00291545189504
 0.142857142857 0.0 0.714285714286 0.00291545189504
 0.142857142857 0.0 0.857142857143 0.00291545189504
 0.142857142857 0.142857142857 0.0 0.00291545189504
 0.142857142857 0.142857142857 0.142857142857 0.00291545189504
 0.142857142857 0.142857142857 0.285714285714 0.00291545189504
 0.142857142857 0.142857142857 0.428571428571 0.00291545189504
 0.142857142857 0.142857142857 0.571428571429 0.00291545189504
 0.142857142857 0.142857142857 0.714285714286 0.00291545189504
 0.142857142857 0.142857142857 0.857142857143 0.00291545189504
 0.142857142857 0.285714285714 0.0 0.00291545189504
 0.142857142857 0.285714285714 0.142857142857 0.00291545189504
 0.142857142857 0.285714285714 0.285714285714 0.00291545189504
 0.142857142857 0.285714285714 0.428571428571 0.00291545189504
 0.142857142857 0.285714285714 0.571428571429 0.00291545189504
 0.142857142857 0.285714285714 0.714285714286 0.00291545189504
 0.142857142857 0.285714285714 0.857142857143 0.00291545189504
 0.142857142857 0.428571428571 0.0 0.00291545189504
 0.142857142857 0.428571428571 0.142857142857 0.00291545189504
 0.142857142857 0.428571428571 0.285714285714 0.00291545189504
 0.142857142857 0.428571428571 0.428571428571 0.00291545189504
 0.142857142857 0.428571428571 0.571428571429 0.00291545189504
 0.142857142857 0.428571428571 0.714285714286 0.00291545189504
 0.142857142857 0.428571428571 0.857142857143 0.00291545189504
 0.142857142857 0.571428571429 0.0 0.00291545189504
 0.142857142857 0.571428571429 0.142857142857 0.00291545189504
 0.142857142857 0.571428571429 0.285714285714 0.00291545189504
 0.142857142857 0.571428571429 0.428571428571 0.00291545189504
 0.142857142857 0.571428571429 0.571428571429 0.00291545189504
 0.142857142857 0.571428571429 0.714285714286 0.00291545189504
 0.142857142857 0.571428571429 0.857142857143 0.00291545189504
 0.142857142857 0.714285714286 0.0 0.00291545189504
 0.142857142857 0.714285714286 0.142857142857 0.00291545189504
 0.142857142857 0.714285714286 0.285714285714 0.00291545189504
 0.142857142857 0.714285714286 0.428571428571 0.00291545189504
 0.142857142857 0.714285714286 0.571428571429 0.00291545189504
 0.142857142857 0.714285714286 0.714285714286 0.00291545189504
 0.142857142857 0.714285714286 0.857142857143 0.00291545189504
 0.142857142857 0.857142857143 0.0 0.00291545189504
 0.142857142857 0.857142857143 0.142857142857 0.00291545189504
 0.142857142857 0.857142857143 0.285714285714 0.00291545189504
 0.142857142857 0.857142857143 0.428571428571 0.00291545189504
 0.142857142857 0.857142857143 0.571428571429 0.00291545189504
 0.142857142857 0.857142857143 0.714285714286 0.00291545189504
 0.142857142857 0.857142857143 0.857142857143 0.00291545189504
 0.285714285714 0.0 0.0 0.00291545189504
 0.285714285714 0.0 0.142857142857 0.00291545189504
 0.285714285714 0.0 0.285714285714 0.00291545189504
 0.285714285714 0.0 0.428571428571 0.00291545189504
 0.285714285714 0.0 0.571428571429 0.00291545189504
 0.285714285714 0.0 0.714285714286 0.00291545189504
 0.285714285714 0.0 0.857142857143 0.00291545189504
 0.285714285714 0.142857142857 0.0 0.00291545189504
 0.285714285714 0.142857142857 0.142857142857 0.00291545189504
 0.285714285714 0.142857142857 0.285714285714 0.00291545189504
 0.285714285714 0.142857142857 0.428571428571 0.00291545189504
 0.285714285714 0.142857142857 0.571428571429 0.00291545189504
 0.285714285714 0.142857142857 0.714285714286 0.00291545189504
 0.285714285714 0.142857142857 0.857142857143 0.00291545189504
 0.285714285714 0.285714285714 0.0 0.00291545189504
 0.285714285714 0.285714285714 0.142857142857 0.00291545189504
 0.285714285714 0.285714285714 0.285714285714 0.00291545189504
 0.285714285714 0.285714285714 0.428571428571 0.00291545189504
 0.285714285714 0.285714285714 0.571428571429 0.00291545189504
 0.285714285714 0.285714285714 0.714285714286 0.00291545189504
 0.285714285714 0.285714285714 0.857142857143 0.00291545189504
 0.285714285714 0.428571428571 0.0 0.00291545189504
 0.285714285714 0.428571428571 0.142857142857 0.00291545189504
 0.285714285714 0.428571428571 0.285714285714 0.00291545189504
 0.285714285714 0.428571428571 0.428571428571 0.00291545189504
 0.285714285714 0.428571428571 0.571428571429 0.00291545189504
 0.285714285714 0.428571428571 0.714285714286 0.00291545189504
 0.285714285714 0.428571428571 0.857142857143 0.00291545189504
 0.285714285714 0.571428571429 0.0 0.00291545189504
 0.285714285714 0.571428571429 0.142857142857 0.00291545189504
 0.285714285714 0.571428571429 0.285714285714 0.00291545189504
 0.285714285714 0.571428571429 0.428571428571 0.00291545189504
 0.285714285714 0.571428571429 0.571428571429 0.00291545189504
 0.285714285714 0.571428571429 0.714285714286 0.00291545189504
 0.285714285714 0.571428571429 0.857142857143 0.00291545189504
 0.285714285714 0.714285714286 0.0 0.00291545189504
 0.285714285714 0.714285714286 0.142857142857 0.00291545189504
 0.285714285714 0.714285714286 0.285714285714 0.00291545189504
 0.285714285714 0.714285714286 0.428571428571 0.00291545189504
 0.285714285714 0.714285714286 0.571428571429 0.00291545189504
 0.285714285714 0.714285714286 0.714285714286 0.00291545189504
 0.285714285714 0.714285714286 0.857142857143 0.00291545189504
 0.285714285714 0.857142857143 0.0 0.00291545189504
 0.285714285714 0.857142857143 0.142857142857 0.00291545189504
 0.285714285714 0.857142857143 0.285714285714 0.00291545189504
 0.285714285714 0.857142857143 0.428571428571 0.00291545189504
 0.285714285714 0.857142857143 0.571428571429 0.00291545189504
 0.285714285714 0.857142857143 0.714285714286 0.00291545189504
 0.285714285714 0.857142857143 0.857142857143 0.00291545189504
 0.428571428571 0.0 0.0 0.00291545189504
 0.428571428571 0.0 0.142857142857 0.00291545189504
 0.428571428571 0.0 0.285714285714 0.00291545189504
 0.428571428571 0.0 0.428571428571 0.00291545189504
 0.428571428571 0.0 0.571428571429 0.00291545189504
 0.428571428571 0.0 0.714285714286 0.00291545189504
 0.428571428571 0.0 0.857142857143 0.00291545189504
 0.428571428571 0.142857142857 0.0 0.00291545189504
 0.428571428571 0.142857142857 0.142857142857 0.00291545189504
 0.428571428571 0.142857142857 0.285714285714 0.00291545189504
 0.428571428571 0.142857142857 0.428571428571 0.00291545189504
 0.428571428571 0.142857142857 0.571428571429 0.00291545189504
 0.428571428571 0.142857142857 0.714285714286 0.00291545189504
 0.428571428571 0.142857142857 0.857142857143 0.00291545189504
 0.428571428571 0.285714285714 0.0 0.00291545189504
 0.428571428571 0.285714285714 0.142857142857 0.00291545189504
 0.428571428571 0.285714285714 0.285714285714 0.00291545189504
 0.428571428571 0.285714285714 0.428571428571 0.00291545189504
 0.428571428571 0.285714285714 0.571428571429 0.00291545189504
 0.428571428571 0.285714285714 0.714285714286 0.00291545189504
 0.428571428571 0.285714285714 0.857142857143 0.00291545189504
 0.428571428571 0.428571428571 0.0 0.00291545189504
 0.428571428571 0.428571428571 0.142857142857 0.00291545189504
 0.428571428571 0.428571428571 0.285714285714 0.00291545189504
 0.428571428571 0.428571428571 0.428571428571 0.00291545189504
 0.428571428571 0.428571428571 0.571428571429 0.00291545189504
 0.428571428571 0.428571428571 0.714285714286 0.00291545189504
 0.428571428571 0.428571428571 0.857142857143 0.00291545189504
 0.428571428571 0.571428571429 0.0 0.00291545189504
 0.428571428571 0.571428571429 0.142857142857 0.00291545189504
 0.428571428571 0.571428571429 0.285714285714 0.00291545189504
 0.428571428571 0.571428571429 0.428571428571 0.00291545189504
 0.428571428571 0.571428571429 0.571428571429 0.00291545189504
 0.428571428571 0.571428571429 0.714285714286 0.00291545189504
 0.428571428571 0.571428571429 0.857142857143 0.00291545189504
 0.428571428571 0.714285714286 0.0 0.00291545189504
 0.428571428571 0.714285714286 0.142857142857 0.00291545189504
 0.428571428571 0.714285714286 0.285714285714 0.00291545189504
 0.428571428571 0.714285714286 0.428571428571 0.00291545189504
 0.428571428571 0.714285714286 0.571428571429 0.00291545189504
 0.428571428571 0.714285714286 0.714285714286 0.00291545189504
 0.428571428571 0.714285714286 0.857142857143 0.00291545189504
 0.428571428571 0.857142857143 0.0 0.00291545189504
 0.428571428571 0.857142857143 0.142857142857 0.00291545189504
 0.428571428571 0.857142857143 0.285714285714 0.00291545189504
 0.428571428571 0.857142857143 0.428571428571 0.00291545189504
 0.428571428571 0.857142857143 0.571428571429 0.00291545189504
 0.428571428571 0.857142857143 0.714285714286 0.00291545189504
 0.428571428571 0.857142857143 0.857142857143 0.00291545189504
 0.571428571429 0.0 0.0 0.00291545189504
 0.571428571429 0.0 0.142857142857 0.00291545189504
 0.571428571429 0.0 0.285714285714 0.00291545189504
 0.571428571429 0.0 0.428571428571 0.00291545189504
 0.571428571429 0.0 0.571428571429 0.00291545189504
 0.571428571429 0.0 0.714285714286 0.00291545189504
 0.571428571429 0.0 0.857142857143 0.00291545189504
 0.571428571429 0.142857142857 0.0 0.00291545189504
 0.571428571429 0.142857142857 0.142857142857 0.00291545189504
 0.571428571429 0.142857142857 0.285714285714 0.00291545189504
 0.571428571429 0.142857142857 0.428571428571 0.00291545189504
 0.571428571429 0.142857142857 0.571428571429 0.00291545189504
 0.571428571429 0.142857142857 0.714285714286 0.00291545189504
 0.571428571429 0.142857142857 0.857142857143 0.00291545189504
 0.571428571429 0.285714285714 0.0 0.00291545189504
 0.571428571429 0.285714285714 0.142857142857 0.00291545189504
 0.571428571429 0.285714285714 0.285714285714 0.00291545189504
 0.571428571429 0.285714285714 0.428571428571 0.00291545189504
 0.571428571429 0.285714285714 0.571428571429 0.00291545189504
 0.571428571429 0.285714285714 0.714285714286 0.00291545189504
 0.571428571429 0.285714285714 0.857142857143 0.00291545189504
 0.571428571429 0.428571428571 0.0 0.00291545189504
 0.571428571429 0.428571428571 0.142857142857 0.00291545189504
 0.571428571429 0.428571428571 0.285714285714 0.00291545189504
 0.571428571429 0.428571428571 0.428571428571 0.00291545189504
 0.571428571429 0.428571428571 0.571428571429 0.00291545189504
 0.571428571429 0.428571428571 0.714285714286 0.00291545189504
 0.571428571429 0.428571428571 0.857142857143 0.00291545189504
 0.571428571429 0.571428571429 0.0 0.00291545189504
 0.571428571429 0.571428571429 0.142857142857 0.00291545189504
 0.571428571429 0.571428571429 0.285714285714 0.00291545189504
 0.571428571429 0.571428571429 0.428571428571 0.00291545189504
 0.571428571429 0.571428571429 0.571428571429 0.00291545189504
 0.571428571429 0.571428571429 0.714285714286 0.00291545189504
 0.571428571429 0.571428571429 0.857142857143 0.00291545189504
 0.571428571429 0.714285714286 0.0 0.00291545189504
 0.571428571429 0.714285714286 0.142857142857 0.00291545189504
 0.571428571429 0.714285714286 0.285714285714 0.00291545189504
 0.571428571429 0.714285714286 0.428571428571 0.00291545189504
 0.571428571429 0.714285714286 0.571428571429 0.00291545189504
 0.571428571429 0.714285714286 0.714285714286 0.00291545189504
 0.571428571429 0.714285714286 0.857142857143 0.00291545189504
 0.571428571429 0.857142857143 0.0 0.00291545189504
 0.571428571429 0.857142857143 0.142857142857 0.00291545189504
 0.571428571429 0.857142857143 0.285714285714 0.00291545189504
 0.571428571429 0.857142857143 0.428571428571 0.00291545189504
 0.571428571429 0.857142857143 0.571428571429 0.00291545189504
 0.571428571429 0.857142857143 0.714285714286 0.00291545189504
 0.571428571429 0.857142857143 0.857142857143 0.00291545189504
 0.714285714286 0.0 0.0 0.00291545189504
 0.714285714286 0.0 0.142857142857 0.00291545189504
 0.714285714286 0.0 0.285714285714 0.00291545189504
 0.714285714286 0.0 0.428571428571 0.00291545189504
 0.714285714286 0.0 0.571428571429 0.00291545189504
 0.714285714286 0.0 0.714285714286 0.00291545189504
 0.714285714286 0.0 0.857142857143 0.00291545189504
 0.714285714286 0.142857142857 0.0 0.00291545189504
 0.714285714286 0.142857142857 0.142857142857 0.00291545189504
 0.714285714286 0.142857142857 0.285714285714 0.00291545189504
 0.714285714286 0.142857142857 0.428571428571 0.00291545189504
 0.714285714286 0.142857142857 0.571428571429 0.00291545189504
 0.714285714286 0.142857142857 0.714285714286 0.00291545189504
 0.714285714286 0.142857142857 0.857142857143 0.00291545189504
 0.714285714286 0.285714285714 0.0 0.00291545189504
 0.714285714286 0.285714285714 0.142857142857 0.00291545189504
 0.714285714286 0.285714285714 0.285714285714 0.00291545189504
 0.714285714286 0.285714285714 0.428571428571 0.00291545189504
 0.714285714286 0.285714285714 0.571428571429 0.00291545189504
 0.714285714286 0.285714285714 0.714285714286 0.00291545189504
 0.714285714286 0.285714285714 0.857142857143 0.00291545189504
 0.714285714286 0.428571428571 0.0 0.00291545189504
 0.714285714286 0.428571428571 0.142857142857 0.00291545189504
 0.714285714286 0.428571428571 0.285714285714 0.00291545189504
 0.714285714286 0.428571428571 0.428571428571 0.00291545189504
 0.714285714286 0.428571428571 0.571428571429 0.00291545189504
 0.714285714286 0.428571428571 0.714285714286 0.00291545189504
 0.714285714286 0.428571428571 0.857142857143 0.00291545189504
 0.714285714286 0.571428571429 0.0 0.00291545189504
 0.714285714286 0.571428571429 0.142857142857 0.00291545189504
 0.714285714286 0.571428571429 0.285714285714 0.00291545189504
 0.714285714286 0.571428571429 0.428571428571 0.00291545189504
 0.714285714286 0.571428571429 0.571428571429 0.00291545189504
 0.714285714286 0.571428571429 0.714285714286 0.00291545189504
 0.714285714286 0.571428571429 0.857142857143 0.00291545189504
 0.714285714286 0.714285714286 0.0 0.00291545189504
 0.714285714286 0.714285714286 0.142857142857 0.00291545189504
 0.714285714286 0.714285714286 0.285714285714 0.00291545189504
 0.714285714286 0.714285714286 0.428571428571 0.00291545189504
 0.714285714286 0.714285714286 0.571428571429 0.00291545189504
 0.714285714286 0.714285714286 0.714285714286 0.00291545189504
 0.714285714286 0.714285714286 0.857142857143 0.00291545189504
 0.714285714286 0.857142857143 0.0 0.00291545189504
 0.714285714286 0.857142857143 0.142857142857 0.00291545189504
 0.714285714286 0.857142857143 0.285714285714 0.00291545189504
 0.714285714286 0.857142857143 0.428571428571 0.00291545189504
 0.714285714286 0.857142857143 0.571428571429 0.00291545189504
 0.714285714286 0.857142857143 0.714285714286 0.00291545189504
 0.714285714286 0.857142857143 0.857142857143 0.00291545189504
 0.857142857143 0.0 0.0 0.00291545189504
 0.857142857143 0.0 0.142857142857 0.00291545189504
 0.857142857143 0.0 0.285714285714 0.00291545189504
 0.857142857143 0.0 0.428571428571 0.00291545189504
 0.857142857143 0.0 0.571428571429 0.00291545189504
 0.857142857143 0.0 0.714285714286 0.00291545189504
 0.857142857143 0.0 0.857142857143 0.00291545189504
 0.857142857143 0.142857142857 0.0 0.00291545189504
 0.857142857143 0.142857142857 0.142857142857 0.00291545189504
 0.857142857143 0.142857142857 0.285714285714 0.00291545189504
 0.857142857143 0.142857142857 0.428571428571 0.00291545189504
 0.857142857143 0.142857142857 0.571428571429 0.00291545189504
 0.857142857143 0.142857142857 0.714285714286 0.00291545189504
 0.857142857143 0.142857142857 0.857142857143 0.00291545189504
 0.857142857143 0.285714285714 0.0 0.00291545189504
 0.857142857143 0.285714285714 0.142857142857 0.00291545189504
 0.857142857143 0.285714285714 0.285714285714 0.00291545189504
 0.857142857143 0.285714285714 0.428571428571 0.00291545189504
 0.857142857143 0.285714285714 0.571428571429 0.00291545189504
 0.857142857143 0.285714285714 0.714285714286 0.00291545189504
 0.857142857143 0.285714285714 0.857142857143 0.00291545189504
 0.857142857143 0.428571428571 0.0 0.00291545189504
 0.857142857143 0.428571428571 0.142857142857 0.00291545189504
 0.857142857143 0.428571428571 0.285714285714 0.00291545189504
 0.857142857143 0.428571428571 0.428571428571 0.00291545189504
 0.857142857143 0.428571428571 0.571428571429 0.00291545189504
 0.857142857143 0.428571428571 0.714285714286 0.00291545189504
 0.857142857143 0.428571428571 0.857142857143 0.00291545189504
 0.857142857143 0.571428571429 0.0 0.00291545189504
 0.857142857143 0.571428571429 0.142857142857 0.00291545189504
 0.857142857143 0.571428571429 0.285714285714 0.00291545189504
 0.857142857143 0.571428571429 0.428571428571 0.00291545189504
 0.857142857143 0.571428571429 0.571428571429 0.00291545189504
 0.857142857143 0.571428571429 0.714285714286 0.00291545189504
 0.857142857143 0.571428571429 0.857142857143 0.00291545189504
 0.857142857143 0.714285714286 0.0 0.00291545189504
 0.857142857143 0.714285714286 0.142857142857 0.00291545189504
 0.857142857143 0.714285714286 0.285714285714 0.00291545189504
 0.857142857143 0.714285714286 0.428571428571 0.00291545189504
 0.857142857143 0.714285714286 0.571428571429 0.00291545189504
 0.857142857143 0.714285714286 0.714285714286 0.00291545189504
 0.857142857143 0.714285714286 0.857142857143 0.00291545189504
 0.857142857143 0.857142857143 0.0 0.00291545189504
 0.857142857143 0.857142857143 0.142857142857 0.00291545189504
 0.857142857143 0.857142857143 0.285714285714 0.00291545189504
 0.857142857143 0.857142857143 0.428571428571 0.00291545189504
 0.857142857143 0.857142857143 0.571428571429 0.00291545189504
 0.857142857143 0.857142857143 0.714285714286 0.00291545189504
 0.857142857143 0.857142857143 0.857142857143 0.00291545189504

