 &control
   prefix = 'qespresso',
   outdir = '/Users/shiangfang/Shiang DrobBox/Dropbox/Physics Research/Tim Kaxiras Group/DFT_KIT/examples/',
   pseudo_dir = '/home1/03051/sfang/Pseudo_Potential/QESPRESSO/',
   calculation = 'scf' ,
 /
 &system
   nat = 2,
   ntyp = 1,
   noncolin = .true. ,
   lspinorb = .true. ,
   ecutwfc = 25.0 ,
   ibrav = 0 ,
 /
 &electrons
 /
 &ions
 /
 &cell
 /
CELL_PARAMETERS angstrom
 -2.26647965184 -1.3085526371 3.93232208036
 2.26647965184 -1.3085526371 3.93232208036
 0.0 2.61710527421 3.93232208036

ATOMIC_SPECIES
 Bi  208.9804  Bi.UPF

ATOMIC_POSITIONS angstrom
 Bi 0.0 0.0 0.0
 Bi 0.0 0.0 5.52263177611

K_POINTS automatic
 11 11 11 0.0 0.0 0.0

