K-Points with Monkhorst Pack
 0
Monkhorst Pack
 10 10 10
 0.0 0.0 0.0