CRYSTAL generated by DFT_KIT
1.0
 -2.26647965184 -1.3085526371 3.93232208036
 2.26647965184 -1.3085526371 3.93232208036
 0.0 2.61710527421 3.93232208036
Bi
2
Cartesian
0.0 0.0 0.0
0.0 0.0 5.52263177611
