num_dump_cycles = 10 
dis_win_max = 30 
iprint = 2 
length_unit = Ang 
dis_win_min = -10 
hr_plot = true 
num_bands = 20 
dis_num_iter = 500 
dis_froz_min = -10 
num_print_cycles = 10 
num_wann = 16 
num_iter = 200 
dis_froz_max = 10 

begin projections
 random
 Bi: l=0;l=1
end projections

begin unit_cell_cart
Ang
 -2.26647965184 -1.3085526371 3.93232208036
 2.26647965184 -1.3085526371 3.93232208036
 0.0 2.61710527421 3.93232208036
end unit_cell_cart

begin atoms_cart
Ang
 Bi 0.0 0.0 0.0
 Bi 0.0 0.0 5.52263177611
end atoms_cart

mp_grid 7 7 7

begin kpoints
 0.0 0.0 0.0
 0.0 0.0 0.142857142857
 0.0 0.0 0.285714285714
 0.0 0.0 0.428571428571
 0.0 0.0 0.571428571429
 0.0 0.0 0.714285714286
 0.0 0.0 0.857142857143
 0.0 0.142857142857 0.0
 0.0 0.142857142857 0.142857142857
 0.0 0.142857142857 0.285714285714
 0.0 0.142857142857 0.428571428571
 0.0 0.142857142857 0.571428571429
 0.0 0.142857142857 0.714285714286
 0.0 0.142857142857 0.857142857143
 0.0 0.285714285714 0.0
 0.0 0.285714285714 0.142857142857
 0.0 0.285714285714 0.285714285714
 0.0 0.285714285714 0.428571428571
 0.0 0.285714285714 0.571428571429
 0.0 0.285714285714 0.714285714286
 0.0 0.285714285714 0.857142857143
 0.0 0.428571428571 0.0
 0.0 0.428571428571 0.142857142857
 0.0 0.428571428571 0.285714285714
 0.0 0.428571428571 0.428571428571
 0.0 0.428571428571 0.571428571429
 0.0 0.428571428571 0.714285714286
 0.0 0.428571428571 0.857142857143
 0.0 0.571428571429 0.0
 0.0 0.571428571429 0.142857142857
 0.0 0.571428571429 0.285714285714
 0.0 0.571428571429 0.428571428571
 0.0 0.571428571429 0.571428571429
 0.0 0.571428571429 0.714285714286
 0.0 0.571428571429 0.857142857143
 0.0 0.714285714286 0.0
 0.0 0.714285714286 0.142857142857
 0.0 0.714285714286 0.285714285714
 0.0 0.714285714286 0.428571428571
 0.0 0.714285714286 0.571428571429
 0.0 0.714285714286 0.714285714286
 0.0 0.714285714286 0.857142857143
 0.0 0.857142857143 0.0
 0.0 0.857142857143 0.142857142857
 0.0 0.857142857143 0.285714285714
 0.0 0.857142857143 0.428571428571
 0.0 0.857142857143 0.571428571429
 0.0 0.857142857143 0.714285714286
 0.0 0.857142857143 0.857142857143
 0.142857142857 0.0 0.0
 0.142857142857 0.0 0.142857142857
 0.142857142857 0.0 0.285714285714
 0.142857142857 0.0 0.428571428571
 0.142857142857 0.0 0.571428571429
 0.142857142857 0.0 0.714285714286
 0.142857142857 0.0 0.857142857143
 0.142857142857 0.142857142857 0.0
 0.142857142857 0.142857142857 0.142857142857
 0.142857142857 0.142857142857 0.285714285714
 0.142857142857 0.142857142857 0.428571428571
 0.142857142857 0.142857142857 0.571428571429
 0.142857142857 0.142857142857 0.714285714286
 0.142857142857 0.142857142857 0.857142857143
 0.142857142857 0.285714285714 0.0
 0.142857142857 0.285714285714 0.142857142857
 0.142857142857 0.285714285714 0.285714285714
 0.142857142857 0.285714285714 0.428571428571
 0.142857142857 0.285714285714 0.571428571429
 0.142857142857 0.285714285714 0.714285714286
 0.142857142857 0.285714285714 0.857142857143
 0.142857142857 0.428571428571 0.0
 0.142857142857 0.428571428571 0.142857142857
 0.142857142857 0.428571428571 0.285714285714
 0.142857142857 0.428571428571 0.428571428571
 0.142857142857 0.428571428571 0.571428571429
 0.142857142857 0.428571428571 0.714285714286
 0.142857142857 0.428571428571 0.857142857143
 0.142857142857 0.571428571429 0.0
 0.142857142857 0.571428571429 0.142857142857
 0.142857142857 0.571428571429 0.285714285714
 0.142857142857 0.571428571429 0.428571428571
 0.142857142857 0.571428571429 0.571428571429
 0.142857142857 0.571428571429 0.714285714286
 0.142857142857 0.571428571429 0.857142857143
 0.142857142857 0.714285714286 0.0
 0.142857142857 0.714285714286 0.142857142857
 0.142857142857 0.714285714286 0.285714285714
 0.142857142857 0.714285714286 0.428571428571
 0.142857142857 0.714285714286 0.571428571429
 0.142857142857 0.714285714286 0.714285714286
 0.142857142857 0.714285714286 0.857142857143
 0.142857142857 0.857142857143 0.0
 0.142857142857 0.857142857143 0.142857142857
 0.142857142857 0.857142857143 0.285714285714
 0.142857142857 0.857142857143 0.428571428571
 0.142857142857 0.857142857143 0.571428571429
 0.142857142857 0.857142857143 0.714285714286
 0.142857142857 0.857142857143 0.857142857143
 0.285714285714 0.0 0.0
 0.285714285714 0.0 0.142857142857
 0.285714285714 0.0 0.285714285714
 0.285714285714 0.0 0.428571428571
 0.285714285714 0.0 0.571428571429
 0.285714285714 0.0 0.714285714286
 0.285714285714 0.0 0.857142857143
 0.285714285714 0.142857142857 0.0
 0.285714285714 0.142857142857 0.142857142857
 0.285714285714 0.142857142857 0.285714285714
 0.285714285714 0.142857142857 0.428571428571
 0.285714285714 0.142857142857 0.571428571429
 0.285714285714 0.142857142857 0.714285714286
 0.285714285714 0.142857142857 0.857142857143
 0.285714285714 0.285714285714 0.0
 0.285714285714 0.285714285714 0.142857142857
 0.285714285714 0.285714285714 0.285714285714
 0.285714285714 0.285714285714 0.428571428571
 0.285714285714 0.285714285714 0.571428571429
 0.285714285714 0.285714285714 0.714285714286
 0.285714285714 0.285714285714 0.857142857143
 0.285714285714 0.428571428571 0.0
 0.285714285714 0.428571428571 0.142857142857
 0.285714285714 0.428571428571 0.285714285714
 0.285714285714 0.428571428571 0.428571428571
 0.285714285714 0.428571428571 0.571428571429
 0.285714285714 0.428571428571 0.714285714286
 0.285714285714 0.428571428571 0.857142857143
 0.285714285714 0.571428571429 0.0
 0.285714285714 0.571428571429 0.142857142857
 0.285714285714 0.571428571429 0.285714285714
 0.285714285714 0.571428571429 0.428571428571
 0.285714285714 0.571428571429 0.571428571429
 0.285714285714 0.571428571429 0.714285714286
 0.285714285714 0.571428571429 0.857142857143
 0.285714285714 0.714285714286 0.0
 0.285714285714 0.714285714286 0.142857142857
 0.285714285714 0.714285714286 0.285714285714
 0.285714285714 0.714285714286 0.428571428571
 0.285714285714 0.714285714286 0.571428571429
 0.285714285714 0.714285714286 0.714285714286
 0.285714285714 0.714285714286 0.857142857143
 0.285714285714 0.857142857143 0.0
 0.285714285714 0.857142857143 0.142857142857
 0.285714285714 0.857142857143 0.285714285714
 0.285714285714 0.857142857143 0.428571428571
 0.285714285714 0.857142857143 0.571428571429
 0.285714285714 0.857142857143 0.714285714286
 0.285714285714 0.857142857143 0.857142857143
 0.428571428571 0.0 0.0
 0.428571428571 0.0 0.142857142857
 0.428571428571 0.0 0.285714285714
 0.428571428571 0.0 0.428571428571
 0.428571428571 0.0 0.571428571429
 0.428571428571 0.0 0.714285714286
 0.428571428571 0.0 0.857142857143
 0.428571428571 0.142857142857 0.0
 0.428571428571 0.142857142857 0.142857142857
 0.428571428571 0.142857142857 0.285714285714
 0.428571428571 0.142857142857 0.428571428571
 0.428571428571 0.142857142857 0.571428571429
 0.428571428571 0.142857142857 0.714285714286
 0.428571428571 0.142857142857 0.857142857143
 0.428571428571 0.285714285714 0.0
 0.428571428571 0.285714285714 0.142857142857
 0.428571428571 0.285714285714 0.285714285714
 0.428571428571 0.285714285714 0.428571428571
 0.428571428571 0.285714285714 0.571428571429
 0.428571428571 0.285714285714 0.714285714286
 0.428571428571 0.285714285714 0.857142857143
 0.428571428571 0.428571428571 0.0
 0.428571428571 0.428571428571 0.142857142857
 0.428571428571 0.428571428571 0.285714285714
 0.428571428571 0.428571428571 0.428571428571
 0.428571428571 0.428571428571 0.571428571429
 0.428571428571 0.428571428571 0.714285714286
 0.428571428571 0.428571428571 0.857142857143
 0.428571428571 0.571428571429 0.0
 0.428571428571 0.571428571429 0.142857142857
 0.428571428571 0.571428571429 0.285714285714
 0.428571428571 0.571428571429 0.428571428571
 0.428571428571 0.571428571429 0.571428571429
 0.428571428571 0.571428571429 0.714285714286
 0.428571428571 0.571428571429 0.857142857143
 0.428571428571 0.714285714286 0.0
 0.428571428571 0.714285714286 0.142857142857
 0.428571428571 0.714285714286 0.285714285714
 0.428571428571 0.714285714286 0.428571428571
 0.428571428571 0.714285714286 0.571428571429
 0.428571428571 0.714285714286 0.714285714286
 0.428571428571 0.714285714286 0.857142857143
 0.428571428571 0.857142857143 0.0
 0.428571428571 0.857142857143 0.142857142857
 0.428571428571 0.857142857143 0.285714285714
 0.428571428571 0.857142857143 0.428571428571
 0.428571428571 0.857142857143 0.571428571429
 0.428571428571 0.857142857143 0.714285714286
 0.428571428571 0.857142857143 0.857142857143
 0.571428571429 0.0 0.0
 0.571428571429 0.0 0.142857142857
 0.571428571429 0.0 0.285714285714
 0.571428571429 0.0 0.428571428571
 0.571428571429 0.0 0.571428571429
 0.571428571429 0.0 0.714285714286
 0.571428571429 0.0 0.857142857143
 0.571428571429 0.142857142857 0.0
 0.571428571429 0.142857142857 0.142857142857
 0.571428571429 0.142857142857 0.285714285714
 0.571428571429 0.142857142857 0.428571428571
 0.571428571429 0.142857142857 0.571428571429
 0.571428571429 0.142857142857 0.714285714286
 0.571428571429 0.142857142857 0.857142857143
 0.571428571429 0.285714285714 0.0
 0.571428571429 0.285714285714 0.142857142857
 0.571428571429 0.285714285714 0.285714285714
 0.571428571429 0.285714285714 0.428571428571
 0.571428571429 0.285714285714 0.571428571429
 0.571428571429 0.285714285714 0.714285714286
 0.571428571429 0.285714285714 0.857142857143
 0.571428571429 0.428571428571 0.0
 0.571428571429 0.428571428571 0.142857142857
 0.571428571429 0.428571428571 0.285714285714
 0.571428571429 0.428571428571 0.428571428571
 0.571428571429 0.428571428571 0.571428571429
 0.571428571429 0.428571428571 0.714285714286
 0.571428571429 0.428571428571 0.857142857143
 0.571428571429 0.571428571429 0.0
 0.571428571429 0.571428571429 0.142857142857
 0.571428571429 0.571428571429 0.285714285714
 0.571428571429 0.571428571429 0.428571428571
 0.571428571429 0.571428571429 0.571428571429
 0.571428571429 0.571428571429 0.714285714286
 0.571428571429 0.571428571429 0.857142857143
 0.571428571429 0.714285714286 0.0
 0.571428571429 0.714285714286 0.142857142857
 0.571428571429 0.714285714286 0.285714285714
 0.571428571429 0.714285714286 0.428571428571
 0.571428571429 0.714285714286 0.571428571429
 0.571428571429 0.714285714286 0.714285714286
 0.571428571429 0.714285714286 0.857142857143
 0.571428571429 0.857142857143 0.0
 0.571428571429 0.857142857143 0.142857142857
 0.571428571429 0.857142857143 0.285714285714
 0.571428571429 0.857142857143 0.428571428571
 0.571428571429 0.857142857143 0.571428571429
 0.571428571429 0.857142857143 0.714285714286
 0.571428571429 0.857142857143 0.857142857143
 0.714285714286 0.0 0.0
 0.714285714286 0.0 0.142857142857
 0.714285714286 0.0 0.285714285714
 0.714285714286 0.0 0.428571428571
 0.714285714286 0.0 0.571428571429
 0.714285714286 0.0 0.714285714286
 0.714285714286 0.0 0.857142857143
 0.714285714286 0.142857142857 0.0
 0.714285714286 0.142857142857 0.142857142857
 0.714285714286 0.142857142857 0.285714285714
 0.714285714286 0.142857142857 0.428571428571
 0.714285714286 0.142857142857 0.571428571429
 0.714285714286 0.142857142857 0.714285714286
 0.714285714286 0.142857142857 0.857142857143
 0.714285714286 0.285714285714 0.0
 0.714285714286 0.285714285714 0.142857142857
 0.714285714286 0.285714285714 0.285714285714
 0.714285714286 0.285714285714 0.428571428571
 0.714285714286 0.285714285714 0.571428571429
 0.714285714286 0.285714285714 0.714285714286
 0.714285714286 0.285714285714 0.857142857143
 0.714285714286 0.428571428571 0.0
 0.714285714286 0.428571428571 0.142857142857
 0.714285714286 0.428571428571 0.285714285714
 0.714285714286 0.428571428571 0.428571428571
 0.714285714286 0.428571428571 0.571428571429
 0.714285714286 0.428571428571 0.714285714286
 0.714285714286 0.428571428571 0.857142857143
 0.714285714286 0.571428571429 0.0
 0.714285714286 0.571428571429 0.142857142857
 0.714285714286 0.571428571429 0.285714285714
 0.714285714286 0.571428571429 0.428571428571
 0.714285714286 0.571428571429 0.571428571429
 0.714285714286 0.571428571429 0.714285714286
 0.714285714286 0.571428571429 0.857142857143
 0.714285714286 0.714285714286 0.0
 0.714285714286 0.714285714286 0.142857142857
 0.714285714286 0.714285714286 0.285714285714
 0.714285714286 0.714285714286 0.428571428571
 0.714285714286 0.714285714286 0.571428571429
 0.714285714286 0.714285714286 0.714285714286
 0.714285714286 0.714285714286 0.857142857143
 0.714285714286 0.857142857143 0.0
 0.714285714286 0.857142857143 0.142857142857
 0.714285714286 0.857142857143 0.285714285714
 0.714285714286 0.857142857143 0.428571428571
 0.714285714286 0.857142857143 0.571428571429
 0.714285714286 0.857142857143 0.714285714286
 0.714285714286 0.857142857143 0.857142857143
 0.857142857143 0.0 0.0
 0.857142857143 0.0 0.142857142857
 0.857142857143 0.0 0.285714285714
 0.857142857143 0.0 0.428571428571
 0.857142857143 0.0 0.571428571429
 0.857142857143 0.0 0.714285714286
 0.857142857143 0.0 0.857142857143
 0.857142857143 0.142857142857 0.0
 0.857142857143 0.142857142857 0.142857142857
 0.857142857143 0.142857142857 0.285714285714
 0.857142857143 0.142857142857 0.428571428571
 0.857142857143 0.142857142857 0.571428571429
 0.857142857143 0.142857142857 0.714285714286
 0.857142857143 0.142857142857 0.857142857143
 0.857142857143 0.285714285714 0.0
 0.857142857143 0.285714285714 0.142857142857
 0.857142857143 0.285714285714 0.285714285714
 0.857142857143 0.285714285714 0.428571428571
 0.857142857143 0.285714285714 0.571428571429
 0.857142857143 0.285714285714 0.714285714286
 0.857142857143 0.285714285714 0.857142857143
 0.857142857143 0.428571428571 0.0
 0.857142857143 0.428571428571 0.142857142857
 0.857142857143 0.428571428571 0.285714285714
 0.857142857143 0.428571428571 0.428571428571
 0.857142857143 0.428571428571 0.571428571429
 0.857142857143 0.428571428571 0.714285714286
 0.857142857143 0.428571428571 0.857142857143
 0.857142857143 0.571428571429 0.0
 0.857142857143 0.571428571429 0.142857142857
 0.857142857143 0.571428571429 0.285714285714
 0.857142857143 0.571428571429 0.428571428571
 0.857142857143 0.571428571429 0.571428571429
 0.857142857143 0.571428571429 0.714285714286
 0.857142857143 0.571428571429 0.857142857143
 0.857142857143 0.714285714286 0.0
 0.857142857143 0.714285714286 0.142857142857
 0.857142857143 0.714285714286 0.285714285714
 0.857142857143 0.714285714286 0.428571428571
 0.857142857143 0.714285714286 0.571428571429
 0.857142857143 0.714285714286 0.714285714286
 0.857142857143 0.714285714286 0.857142857143
 0.857142857143 0.857142857143 0.0
 0.857142857143 0.857142857143 0.142857142857
 0.857142857143 0.857142857143 0.285714285714
 0.857142857143 0.857142857143 0.428571428571
 0.857142857143 0.857142857143 0.571428571429
 0.857142857143 0.857142857143 0.714285714286
 0.857142857143 0.857142857143 0.857142857143
end kpoints
